NAME : gr229Preorder.70387.tour
COMMENT : Length = 70387
COMMENT : Found by LKH [Keld Helsgaun] Fri May  1 16:19:44 2020
TYPE : TOUR
DIMENSION : 229
TOUR_SECTION
1
2
3
4
5
6
7
8
9
10
17
16
12
13
14
26
27
15
22
21
20
18
11
19
51
52
53
54
55
58
59
60
61
62
64
65
66
63
67
68
69
71
70
72
73
78
79
88
80
87
81
82
83
57
56
24
23
25
84
85
86
89
90
77
76
75
74
91
92
93
94
100
101
102
103
112
115
118
119
122
123
121
120
116
113
117
114
111
127
126
125
166
124
110
109
108
104
105
107
106
99
98
97
96
95
37
36
35
34
38
33
30
31
32
39
40
41
46
47
48
50
184
183
185
186
182
180
181
178
176
175
174
177
179
168
167
169
170
171
128
130
129
138
137
136
135
134
132
131
133
172
163
173
165
164
162
161
160
159
156
157
158
204
150
155
151
154
153
152
141
140
139
142
143
144
145
146
147
148
149
205
212
211
210
209
206
207
208
213
214
215
216
220
219
217
218
227
228
229
226
225
224
223
222
221
202
203
201
200
199
198
197
187
196
195
194
192
193
191
190
189
188
49
44
43
45
42
29
28
-1
EOF
